p tw 144 23761 2 
1 3 
1 4 
1 5 
1 6 
1 7 
1 8 
1 9 
1 10 
1 11 
1 12 
1 13 
1 24 
1 25 
1 35 
1 37 
1 41 
1 49 
1 52 
1 61 
1 68 
1 73 
1 82 
1 85 
1 91 
1 97 
1 102 
1 109 
1 117 
1 121 
1 123 
1 133 
1 134 
2 3 
2 4 
2 5 
2 6 
2 7 
2 8 
2 9 
2 10 
2 11 
2 12 
2 14 
2 23 
2 25 
2 26 
2 38 
2 40 
2 50 
2 55 
2 62 
2 66 
2 74 
2 80 
2 86 
2 94 
2 98 
2 101 
2 110 
2 111 
2 122 
2 132 
2 134 
2 141 
3 4 
3 5 
3 6 
3 7 
3 8 
3 9 
3 10 
3 11 
3 12 
3 14 
3 15 
3 27 
3 31 
3 39 
3 48 
3 49 
3 51 
3 63 
3 70 
3 75 
3 83 
3 87 
3 92 
3 99 
3 105 
3 111 
3 114 
3 123 
3 125 
3 135 
3 136 
4 5 
4 6 
4 7 
4 8 
4 9 
4 10 
4 11 
4 12 
4 13 
4 16 
4 28 
4 36 
4 40 
4 47 
4 52 
4 58 
4 64 
4 69 
4 76 
4 77 
4 87 
4 88 
4 98 
4 100 
4 112 
4 116 
4 124 
4 126 
4 136 
4 139 
5 6 
5 7 
5 8 
5 9 
5 10 
5 11 
5 12 
5 16 
5 17 
5 29 
5 33 
5 39 
5 41 
5 53 
5 54 
5 65 
5 67 
5 74 
5 77 
5 89 
5 95 
5 97 
5 101 
5 113 
5 118 
5 125 
5 128 
5 137 
5 144 
6 7 
6 8 
6 9 
6 10 
6 11 
6 12 
6 18 
6 21 
6 30 
6 34 
6 38 
6 42 
6 51 
6 54 
6 66 
6 72 
6 73 
6 78 
6 88 
6 90 
6 102 
6 103 
6 113 
6 114 
6 126 
6 131 
6 138 
6 140 
7 8 
7 9 
7 10 
7 11 
7 12 
7 18 
7 19 
7 28 
7 31 
7 43 
7 46 
7 55 
7 56 
7 62 
7 67 
7 75 
7 79 
7 91 
7 96 
7 103 
7 107 
7 109 
7 115 
7 127 
7 129 
7 137 
7 139 
8 9 
8 10 
8 11 
8 12 
8 17 
8 20 
8 27 
8 32 
8 37 
8 44 
8 56 
8 60 
8 68 
8 71 
8 76 
8 80 
8 92 
8 93 
8 104 
8 106 
8 115 
8 116 
8 122 
8 128 
8 138 
8 140 
9 10 
9 11 
9 12 
9 15 
9 21 
9 29 
9 33 
9 44 
9 45 
9 50 
9 57 
9 61 
9 69 
9 79 
9 81 
9 90 
9 93 
9 105 
9 108 
9 112 
9 117 
9 129 
9 130 
9 141 
9 143 
10 11 
10 12 
10 19 
10 22 
10 26 
10 34 
10 42 
10 46 
10 57 
10 58 
10 65 
10 70 
10 82 
10 84 
10 85 
10 94 
10 104 
10 106 
10 118 
10 119 
10 124 
10 130 
10 135 
10 142 
11 12 
11 20 
11 23 
11 30 
11 35 
11 43 
11 47 
11 53 
11 59 
11 64 
11 71 
11 81 
11 83 
11 86 
11 95 
11 99 
11 107 
11 119 
11 120 
11 121 
11 131 
11 142 
11 143 
12 22 
12 24 
12 32 
12 36 
12 45 
12 48 
12 59 
12 60 
12 63 
12 72 
12 78 
12 84 
12 89 
12 96 
12 100 
12 108 
12 110 
12 120 
12 127 
12 132 
12 133 
12 144 
13 14 
13 15 
13 16 
13 17 
13 18 
13 19 
13 20 
13 21 
13 22 
13 23 
13 24 
13 25 
13 36 
13 37 
13 47 
13 49 
13 58 
13 61 
13 69 
13 73 
13 77 
13 85 
13 87 
13 97 
13 98 
13 109 
13 116 
13 121 
13 126 
13 133 
13 139 
14 15 
14 16 
14 17 
14 18 
14 19 
14 20 
14 21 
14 22 
14 23 
14 24 
14 26 
14 31 
14 38 
14 48 
14 49 
14 50 
14 62 
14 70 
14 74 
14 83 
14 86 
14 92 
14 98 
14 105 
14 110 
14 114 
14 122 
14 125 
14 134 
14 136 
15 16 
15 17 
15 18 
15 19 
15 20 
15 21 
15 22 
15 23 
15 24 
15 27 
15 29 
15 39 
15 44 
15 50 
15 51 
15 61 
15 63 
15 75 
15 79 
15 87 
15 90 
15 99 
15 108 
15 111 
15 112 
15 123 
15 130 
15 135 
15 143 
16 17 
16 18 
16 19 
16 20 
16 21 
16 22 
16 23 
16 24 
16 28 
16 33 
16 39 
16 40 
16 52 
16 54 
16 64 
16 67 
16 74 
16 76 
16 88 
16 95 
16 97 
16 100 
16 112 
16 118 
16 124 
16 128 
16 136 
16 144 
17 18 
17 19 
17 20 
17 21 
17 22 
17 23 
17 24 
17 27 
17 29 
17 37 
17 41 
17 53 
17 60 
17 65 
17 71 
17 76 
17 77 
17 89 
17 93 
17 101 
17 106 
17 113 
17 115 
17 122 
17 125 
17 137 
17 138 
18 19 
18 20 
18 21 
18 22 
18 23 
18 24 
18 28 
18 30 
18 42 
18 46 
18 54 
18 56 
18 62 
18 66 
18 75 
18 78 
18 90 
18 96 
18 102 
18 107 
18 109 
18 114 
18 126 
18 129 
18 137 
18 138 
19 20 
19 21 
19 22 
19 23 
19 24 
19 26 
19 31 
19 42 
19 43 
19 55 
19 57 
19 65 
19 67 
19 79 
19 84 
19 85 
19 91 
19 103 
19 104 
19 115 
19 119 
19 124 
19 127 
19 135 
19 139 
20 21 
20 22 
20 23 
20 24 
20 30 
20 32 
20 43 
20 44 
20 53 
20 56 
20 64 
20 68 
20 80 
20 81 
20 86 
20 92 
20 99 
20 104 
20 116 
20 120 
20 121 
20 128 
20 140 
20 142 
21 22 
21 23 
21 24 
21 33 
21 34 
21 38 
21 45 
21 51 
21 57 
21 69 
21 72 
21 73 
21 81 
21 88 
21 93 
21 103 
21 105 
21 113 
21 117 
21 129 
21 131 
21 140 
21 141 
22 23 
22 24 
22 32 
22 34 
22 45 
22 46 
22 58 
22 59 
22 63 
22 70 
22 78 
22 82 
22 89 
22 94 
22 100 
22 106 
22 110 
22 118 
22 127 
22 130 
22 133 
22 142 
23 24 
23 25 
23 35 
23 40 
23 47 
23 55 
23 59 
23 66 
23 71 
23 80 
23 83 
23 94 
23 95 
23 101 
23 107 
23 111 
23 119 
23 131 
23 132 
23 141 
23 143 
24 35 
24 36 
24 41 
24 48 
24 52 
24 60 
24 68 
24 72 
24 82 
24 84 
24 91 
24 96 
24 102 
24 108 
24 117 
24 120 
24 123 
24 132 
24 134 
24 144 
25 26 
25 27 
25 28 
25 29 
25 30 
25 31 
25 32 
25 33 
25 34 
25 35 
25 36 
25 37 
25 40 
25 49 
25 55 
25 61 
25 66 
25 73 
25 80 
25 85 
25 94 
25 97 
25 101 
25 109 
25 111 
25 121 
25 132 
25 133 
25 141 
26 27 
26 28 
26 29 
26 30 
26 31 
26 32 
26 33 
26 34 
26 35 
26 36 
26 38 
26 42 
26 50 
26 57 
26 62 
26 65 
26 74 
26 84 
26 85 
26 86 
26 98 
26 104 
26 110 
26 119 
26 122 
26 124 
26 134 
26 135 
27 28 
27 29 
27 30 
27 31 
27 32 
27 33 
27 34 
27 35 
27 36 
27 37 
27 39 
27 51 
27 60 
27 63 
27 71 
27 75 
27 76 
27 87 
27 93 
27 99 
27 106 
27 111 
27 115 
27 122 
27 123 
27 135 
27 138 
28 29 
28 30 
28 31 
28 32 
28 33 
28 34 
28 35 
28 36 
28 40 
28 46 
28 52 
28 56 
28 62 
28 64 
28 75 
28 76 
28 88 
28 96 
28 100 
28 107 
28 109 
28 112 
28 124 
28 129 
28 136 
28 137 
29 30 
29 31 
29 32 
29 33 
29 34 
29 35 
29 36 
29 41 
29 44 
29 50 
29 53 
29 61 
29 65 
29 77 
29 79 
29 89 
29 90 
29 101 
29 108 
29 112 
29 113 
29 125 
29 130 
29 137 
29 143 
30 31 
30 32 
30 33 
30 34 
30 35 
30 36 
30 42 
30 43 
30 53 
30 54 
30 64 
30 66 
30 78 
30 81 
30 86 
30 90 
30 99 
30 102 
30 114 
30 120 
30 121 
30 126 
30 138 
30 142 
31 32 
31 33 
31 34 
31 35 
31 36 
31 43 
31 48 
31 49 
31 55 
31 67 
31 70 
31 79 
31 83 
31 91 
31 92 
31 103 
31 105 
31 114 
31 115 
31 125 
31 127 
31 136 
31 139 
32 33 
32 34 
32 35 
32 36 
32 44 
32 45 
32 56 
32 59 
32 63 
32 68 
32 78 
32 80 
32 89 
32 92 
32 100 
32 104 
32 110 
32 116 
32 127 
32 128 
32 133 
32 140 
33 34 
33 35 
33 36 
33 39 
33 45 
33 54 
33 57 
33 67 
33 69 
33 74 
33 81 
33 93 
33 95 
33 97 
33 105 
33 117 
33 118 
33 128 
33 129 
33 141 
33 144 
34 35 
34 36 
34 38 
34 46 
34 51 
34 58 
34 70 
34 72 
34 73 
34 82 
34 88 
34 94 
34 103 
34 106 
34 113 
34 118 
34 130 
34 131 
34 140 
34 142 
35 36 
35 41 
35 47 
35 52 
35 59 
35 68 
35 71 
35 82 
35 83 
35 91 
35 95 
35 102 
35 107 
35 117 
35 119 
35 123 
35 131 
35 134 
35 143 
36 47 
36 48 
36 58 
36 60 
36 69 
36 72 
36 77 
36 84 
36 87 
36 96 
36 98 
36 108 
36 116 
36 120 
36 126 
36 132 
36 139 
36 144 
37 38 
37 39 
37 40 
37 41 
37 42 
37 43 
37 44 
37 45 
37 46 
37 47 
37 48 
37 49 
37 60 
37 61 
37 71 
37 73 
37 76 
37 85 
37 93 
37 97 
37 106 
37 109 
37 115 
37 121 
37 122 
37 133 
37 138 
38 39 
38 40 
38 41 
38 42 
38 43 
38 44 
38 45 
38 46 
38 47 
38 48 
38 50 
38 51 
38 62 
38 72 
38 73 
38 74 
38 86 
38 88 
38 98 
38 103 
38 110 
38 113 
38 122 
38 131 
38 134 
38 140 
39 40 
39 41 
39 42 
39 43 
39 44 
39 45 
39 46 
39 47 
39 48 
39 51 
39 54 
39 63 
39 67 
39 74 
39 75 
39 87 
39 95 
39 97 
39 99 
39 111 
39 118 
39 123 
39 128 
39 135 
39 144 
40 41 
40 42 
40 43 
40 44 
40 45 
40 46 
40 47 
40 48 
40 52 
40 55 
40 64 
40 66 
40 76 
40 80 
40 88 
40 94 
40 100 
40 101 
40 111 
40 112 
40 124 
40 132 
40 136 
40 141 
41 42 
41 43 
41 44 
41 45 
41 46 
41 47 
41 48 
41 52 
41 53 
41 65 
41 68 
41 77 
41 82 
41 89 
41 91 
41 101 
41 102 
41 113 
41 117 
41 123 
41 125 
41 134 
41 137 
42 43 
42 44 
42 45 
42 46 
42 47 
42 48 
42 54 
42 57 
42 65 
42 66 
42 78 
42 84 
42 85 
42 90 
42 102 
42 104 
42 114 
42 119 
42 124 
42 126 
42 135 
42 138 
43 44 
43 45 
43 46 
43 47 
43 48 
43 53 
43 55 
43 64 
43 67 
43 79 
43 81 
43 86 
43 91 
43 99 
43 103 
43 115 
43 120 
43 121 
43 127 
43 139 
43 142 
44 45 
44 46 
44 47 
44 48 
44 50 
44 56 
44 61 
44 68 
44 79 
44 80 
44 90 
44 92 
44 104 
44 108 
44 112 
44 116 
44 128 
44 130 
44 140 
44 143 
45 46 
45 47 
45 48 
45 57 
45 59 
45 63 
45 69 
45 78 
45 81 
45 89 
45 93 
45 100 
45 105 
45 110 
45 117 
45 127 
45 129 
45 133 
45 141 
46 47 
46 48 
46 56 
46 58 
46 62 
46 70 
46 75 
46 82 
46 94 
46 96 
46 106 
46 107 
46 109 
46 118 
46 129 
46 130 
46 137 
46 142 
47 48 
47 58 
47 59 
47 69 
47 71 
47 77 
47 83 
47 87 
47 95 
47 98 
47 107 
47 116 
47 119 
47 126 
47 131 
47 139 
47 143 
48 49 
48 60 
48 70 
48 72 
48 83 
48 84 
48 92 
48 96 
48 105 
48 108 
48 114 
48 120 
48 125 
48 132 
48 136 
48 144 
49 50 
49 51 
49 52 
49 53 
49 54 
49 55 
49 56 
49 57 
49 58 
49 59 
49 60 
49 61 
49 70 
49 73 
49 83 
49 85 
49 92 
49 97 
49 105 
49 109 
49 114 
49 121 
49 125 
49 133 
49 136 
50 51 
50 52 
50 53 
50 54 
50 55 
50 56 
50 57 
50 58 
50 59 
50 60 
50 61 
50 62 
50 74 
50 79 
50 86 
50 90 
50 98 
50 108 
50 110 
50 112 
50 122 
50 130 
50 134 
50 143 
51 52 
51 53 
51 54 
51 55 
51 56 
51 57 
51 58 
51 59 
51 60 
51 63 
51 72 
51 73 
51 75 
51 87 
51 88 
51 99 
51 103 
51 111 
51 113 
51 123 
51 131 
51 135 
51 140 
52 53 
52 54 
52 55 
52 56 
52 57 
52 58 
52 59 
52 60 
52 64 
52 68 
52 76 
52 82 
52 88 
52 91 
52 100 
52 102 
52 112 
52 117 
52 123 
52 124 
52 134 
52 136 
53 54 
53 55 
53 56 
53 57 
53 58 
53 59 
53 60 
53 64 
53 65 
53 77 
53 81 
53 86 
53 89 
53 99 
53 101 
53 113 
53 120 
53 121 
53 125 
53 137 
53 142 
54 55 
54 56 
54 57 
54 58 
54 59 
54 60 
54 66 
54 67 
54 74 
54 78 
54 90 
54 95 
54 97 
54 102 
54 114 
54 118 
54 126 
54 128 
54 138 
54 144 
55 56 
55 57 
55 58 
55 59 
55 60 
55 66 
55 67 
55 79 
55 80 
55 91 
55 94 
55 101 
55 103 
55 111 
55 115 
55 127 
55 132 
55 139 
55 141 
56 57 
56 58 
56 59 
56 60 
56 62 
56 68 
56 75 
56 80 
56 92 
56 96 
56 104 
56 107 
56 109 
56 116 
56 128 
56 129 
56 137 
56 140 
57 58 
57 59 
57 60 
57 65 
57 69 
57 81 
57 84 
57 85 
57 93 
57 104 
57 105 
57 117 
57 119 
57 124 
57 129 
57 135 
57 141 
58 59 
58 60 
58 69 
58 70 
58 77 
58 82 
58 87 
58 94 
58 98 
58 106 
58 116 
58 118 
58 126 
58 130 
58 139 
58 142 
59 60 
59 63 
59 71 
59 78 
59 83 
59 89 
59 95 
59 100 
59 107 
59 110 
59 119 
59 127 
59 131 
59 133 
59 143 
60 71 
60 72 
60 76 
60 84 
60 93 
60 96 
60 106 
60 108 
60 115 
60 120 
60 122 
60 132 
60 138 
60 144 
61 62 
61 63 
61 64 
61 65 
61 66 
61 67 
61 68 
61 69 
61 70 
61 71 
61 72 
61 73 
61 79 
61 85 
61 90 
61 97 
61 108 
61 109 
61 112 
61 121 
61 130 
61 133 
61 143 
62 63 
62 64 
62 65 
62 66 
62 67 
62 68 
62 69 
62 70 
62 71 
62 72 
62 74 
62 75 
62 86 
62 96 
62 98 
62 107 
62 109 
62 110 
62 122 
62 129 
62 134 
62 137 
63 64 
63 65 
63 66 
63 67 
63 68 
63 69 
63 70 
63 71 
63 72 
63 75 
63 78 
63 87 
63 89 
63 99 
63 100 
63 110 
63 111 
63 123 
63 127 
63 133 
63 135 
64 65 
64 66 
64 67 
64 68 
64 69 
64 70 
64 71 
64 72 
64 76 
64 81 
64 86 
64 88 
64 99 
64 100 
64 112 
64 120 
64 121 
64 124 
64 136 
64 142 
65 66 
65 67 
65 68 
65 69 
65 70 
65 71 
65 72 
65 77 
65 84 
65 85 
65 89 
65 101 
65 104 
65 113 
65 119 
65 124 
65 125 
65 135 
65 137 
66 67 
66 68 
66 69 
66 70 
66 71 
66 72 
66 78 
66 80 
66 90 
66 94 
66 101 
66 102 
66 111 
66 114 
66 126 
66 132 
66 138 
66 141 
67 68 
67 69 
67 70 
67 71 
67 72 
67 74 
67 79 
67 91 
67 95 
67 97 
67 103 
67 115 
67 118 
67 127 
67 128 
67 139 
67 144 
68 69 
68 70 
68 71 
68 72 
68 80 
68 82 
68 91 
68 92 
68 102 
68 104 
68 116 
68 117 
68 123 
68 128 
68 134 
68 140 
69 70 
69 71 
69 72 
69 77 
69 81 
69 87 
69 93 
69 98 
69 105 
69 116 
69 117 
69 126 
69 129 
69 139 
69 141 
70 71 
70 72 
70 82 
70 83 
70 92 
70 94 
70 105 
70 106 
70 114 
70 118 
70 125 
70 130 
70 136 
70 142 
71 72 
71 76 
71 83 
71 93 
71 95 
71 106 
71 107 
71 115 
71 119 
71 122 
71 131 
71 138 
71 143 
72 73 
72 84 
72 88 
72 96 
72 103 
72 108 
72 113 
72 120 
72 131 
72 132 
72 140 
72 144 
73 74 
73 75 
73 76 
73 77 
73 78 
73 79 
73 80 
73 81 
73 82 
73 83 
73 84 
73 85 
73 88 
73 97 
73 103 
73 109 
73 113 
73 121 
73 131 
73 133 
73 140 
74 75 
74 76 
74 77 
74 78 
74 79 
74 80 
74 81 
74 82 
74 83 
74 84 
74 86 
74 95 
74 97 
74 98 
74 110 
74 118 
74 122 
74 128 
74 134 
74 144 
75 76 
75 77 
75 78 
75 79 
75 80 
75 81 
75 82 
75 83 
75 84 
75 87 
75 96 
75 99 
75 107 
75 109 
75 111 
75 123 
75 129 
75 135 
75 137 
76 77 
76 78 
76 79 
76 80 
76 81 
76 82 
76 83 
76 84 
76 88 
76 93 
76 100 
76 106 
76 112 
76 115 
76 122 
76 124 
76 136 
76 138 
77 78 
77 79 
77 80 
77 81 
77 82 
77 83 
77 84 
77 87 
77 89 
77 98 
77 101 
77 113 
77 116 
77 125 
77 126 
77 137 
77 139 
78 79 
78 80 
78 81 
78 82 
78 83 
78 84 
78 89 
78 90 
78 100 
78 102 
78 110 
78 114 
78 126 
78 127 
78 133 
78 138 
79 80 
79 81 
79 82 
79 83 
79 84 
79 90 
79 91 
79 103 
79 108 
79 112 
79 115 
79 127 
79 130 
79 139 
79 143 
80 81 
80 82 
80 83 
80 84 
80 92 
80 94 
80 101 
80 104 
80 111 
80 116 
80 128 
80 132 
80 140 
80 141 
81 82 
81 83 
81 84 
81 86 
81 93 
81 99 
81 105 
81 117 
81 120 
81 121 
81 129 
81 141 
81 142 
82 83 
82 84 
82 91 
82 94 
82 102 
82 106 
82 117 
82 118 
82 123 
82 130 
82 134 
82 142 
83 84 
83 92 
83 95 
83 105 
83 107 
83 114 
83 119 
83 125 
83 131 
83 136 
83 143 
84 85 
84 96 
84 104 
84 108 
84 119 
84 120 
84 124 
84 132 
84 135 
84 144 
85 86 
85 87 
85 88 
85 89 
85 90 
85 91 
85 92 
85 93 
85 94 
85 95 
85 96 
85 97 
85 104 
85 109 
85 119 
85 121 
85 124 
85 133 
85 135 
86 87 
86 88 
86 89 
86 90 
86 91 
86 92 
86 93 
86 94 
86 95 
86 96 
86 98 
86 99 
86 110 
86 120 
86 121 
86 122 
86 134 
86 142 
87 88 
87 89 
87 90 
87 91 
87 92 
87 93 
87 94 
87 95 
87 96 
87 98 
87 99 
87 111 
87 116 
87 123 
87 126 
87 135 
87 139 
88 89 
88 90 
88 91 
88 92 
88 93 
88 94 
88 95 
88 96 
88 100 
88 103 
88 112 
88 113 
88 124 
88 131 
88 136 
88 140 
89 90 
89 91 
89 92 
89 93 
89 94 
89 95 
89 96 
89 100 
89 101 
89 110 
89 113 
89 125 
89 127 
89 133 
89 137 
90 91 
90 92 
90 93 
90 94 
90 95 
90 96 
90 102 
90 108 
90 112 
90 114 
90 126 
90 130 
90 138 
90 143 
91 92 
91 93 
91 94 
91 95 
91 96 
91 102 
91 103 
91 115 
91 117 
91 123 
91 127 
91 134 
91 139 
92 93 
92 94 
92 95 
92 96 
92 104 
92 105 
92 114 
92 116 
92 125 
92 128 
92 136 
92 140 
93 94 
93 95 
93 96 
93 105 
93 106 
93 115 
93 117 
93 122 
93 129 
93 138 
93 141 
94 95 
94 96 
94 101 
94 106 
94 111 
94 118 
94 130 
94 132 
94 141 
94 142 
95 96 
95 97 
95 107 
95 118 
95 119 
95 128 
95 131 
95 143 
95 144 
96 107 
96 108 
96 109 
96 120 
96 129 
96 132 
96 137 
96 144 
97 98 
97 99 
97 100 
97 101 
97 102 
97 103 
97 104 
97 105 
97 106 
97 107 
97 108 
97 109 
97 118 
97 121 
97 128 
97 133 
97 144 
98 99 
98 100 
98 101 
98 102 
98 103 
98 104 
98 105 
98 106 
98 107 
98 108 
98 110 
98 116 
98 122 
98 126 
98 134 
98 139 
99 100 
99 101 
99 102 
99 103 
99 104 
99 105 
99 106 
99 107 
99 108 
99 111 
99 120 
99 121 
99 123 
99 135 
99 142 
100 101 
100 102 
100 103 
100 104 
100 105 
100 106 
100 107 
100 108 
100 110 
100 112 
100 124 
100 127 
100 133 
100 136 
101 102 
101 103 
101 104 
101 105 
101 106 
101 107 
101 108 
101 111 
101 113 
101 125 
101 132 
101 137 
101 141 
102 103 
102 104 
102 105 
102 106 
102 107 
102 108 
102 114 
102 117 
102 123 
102 126 
102 134 
102 138 
103 104 
103 105 
103 106 
103 107 
103 108 
103 113 
103 115 
103 127 
103 131 
103 139 
103 140 
104 105 
104 106 
104 107 
104 108 
104 116 
104 119 
104 124 
104 128 
104 135 
104 140 
105 106 
105 107 
105 108 
105 114 
105 117 
105 125 
105 129 
105 136 
105 141 
106 107 
106 108 
106 115 
106 118 
106 122 
106 130 
106 138 
106 142 
107 108 
107 109 
107 119 
107 129 
107 131 
107 137 
107 143 
108 112 
108 120 
108 130 
108 132 
108 143 
108 144 
109 110 
109 111 
109 112 
109 113 
109 114 
109 115 
109 116 
109 117 
109 118 
109 119 
109 120 
109 121 
109 129 
109 133 
109 137 
110 111 
110 112 
110 113 
110 114 
110 115 
110 116 
110 117 
110 118 
110 119 
110 120 
110 122 
110 127 
110 133 
110 134 
111 112 
111 113 
111 114 
111 115 
111 116 
111 117 
111 118 
111 119 
111 120 
111 123 
111 132 
111 135 
111 141 
112 113 
112 114 
112 115 
112 116 
112 117 
112 118 
112 119 
112 120 
112 124 
112 130 
112 136 
112 143 
113 114 
113 115 
113 116 
113 117 
113 118 
113 119 
113 120 
113 125 
113 131 
113 137 
113 140 
114 115 
114 116 
114 117 
114 118 
114 119 
114 120 
114 125 
114 126 
114 136 
114 138 
115 116 
115 117 
115 118 
115 119 
115 120 
115 122 
115 127 
115 138 
115 139 
116 117 
116 118 
116 119 
116 120 
116 126 
116 128 
116 139 
116 140 
117 118 
117 119 
117 120 
117 123 
117 129 
117 134 
117 141 
118 119 
118 120 
118 128 
118 130 
118 142 
118 144 
119 120 
119 124 
119 131 
119 135 
119 143 
120 121 
120 132 
120 142 
120 144 
121 122 
121 123 
121 124 
121 125 
121 126 
121 127 
121 128 
121 129 
121 130 
121 131 
121 132 
121 133 
121 142 
122 123 
122 124 
122 125 
122 126 
122 127 
122 128 
122 129 
122 130 
122 131 
122 132 
122 134 
122 138 
123 124 
123 125 
123 126 
123 127 
123 128 
123 129 
123 130 
123 131 
123 132 
123 134 
123 135 
124 125 
124 126 
124 127 
124 128 
124 129 
124 130 
124 131 
124 132 
124 135 
124 136 
125 126 
125 127 
125 128 
125 129 
125 130 
125 131 
125 132 
125 136 
125 137 
126 127 
126 128 
126 129 
126 130 
126 131 
126 132 
126 138 
126 139 
127 128 
127 129 
127 130 
127 131 
127 132 
127 133 
127 139 
128 129 
128 130 
128 131 
128 132 
128 140 
128 144 
129 130 
129 131 
129 132 
129 137 
129 141 
130 131 
130 132 
130 142 
130 143 
131 132 
131 140 
131 143 
132 141 
132 144 
133 134 
133 135 
133 136 
133 137 
133 138 
133 139 
133 140 
133 141 
133 142 
133 143 
133 144 
134 135 
134 136 
134 137 
134 138 
134 139 
134 140 
134 141 
134 142 
134 143 
134 144 
135 136 
135 137 
135 138 
135 139 
135 140 
135 141 
135 142 
135 143 
135 144 
136 137 
136 138 
136 139 
136 140 
136 141 
136 142 
136 143 
136 144 
137 138 
137 139 
137 140 
137 141 
137 142 
137 143 
137 144 
138 139 
138 140 
138 141 
138 142 
138 143 
138 144 
139 140 
139 141 
139 142 
139 143 
139 144 
140 141 
140 142 
140 143 
140 144 
141 142 
141 143 
141 144 
142 143 
142 144 
143 144 
